param n := 120;
param c := 150;
param : V : p w :=
   0	  52	  42
   1	  79	  69
   2	  77	  67
   3	  67	  57
   4	 103	  93
   5	 100	  90
   6	  48	  38
   7	  46	  36
   8	  55	  45
   9	  52	  42
  10	  43	  33
  11	  89	  79
  12	  37	  27
  13	  67	  57
  14	  54	  44
  15	  94	  84
  16	  96	  86
  17	 102	  92
  18	  56	  46
  19	  48	  38
  20	  95	  85
  21	  43	  33
  22	  92	  82
  23	  83	  73
  24	  59	  49
  25	  80	  70
  26	  69	  59
  27	  33	  23
  28	  67	  57
  29	  82	  72
  30	  84	  74
  31	  79	  69
  32	  43	  33
  33	  52	  42
  34	  38	  28
  35	  56	  46
  36	  40	  30
  37	  74	  64
  38	  39	  29
  39	  84	  74
  40	  51	  41
  41	  59	  49
  42	  65	  55
  43	 108	  98
  44	  90	  80
  45	  42	  32
  46	  35	  25
  47	  48	  38
  48	  92	  82
  49	  40	  30
  50	  45	  35
  51	  49	  39
  52	  67	  57
  53	  94	  84
  54	  72	  62
  55	  60	  50
  56	  65	  55
  57	  37	  27
  58	  40	  30
  59	  46	  36
  60	  30	  20
  61	  88	  78
  62	  57	  47
  63	  36	  26
  64	  55	  45
  65	  51	  41
  66	  68	  58
  67	 108	  98
  68	 101	  91
  69	 106	  96
  70	  83	  73
  71	  94	  84
  72	  47	  37
  73	 103	  93
  74	 101	  91
  75	  53	  43
  76	  83	  73
  77	  95	  85
  78	  91	  81
  79	  89	  79
  80	  81	  71
  81	  90	  80
  82	  86	  76
  83	  93	  83
  84	  51	  41
  85	  88	  78
  86	  80	  70
  87	  33	  23
  88	  52	  42
  89	  97	  87
  90	  53	  43
  91	  94	  84
  92	  70	  60
  93	  65	  55
  94	  59	  49
  95	  88	  78
  96	  83	  73
  97	  72	  62
  98	  46	  36
  99	  54	  44
 100	 104	  94
 101	  79	  69
 102	  42	  32
 103	 106	  96
 104	  80	  70
 105	  94	  84
 106	  68	  58
 107	  88	  78
 108	  35	  25
 109	  90	  80
 110	  68	  58
 111	  76	  66
 112	  93	  83
 113	  34	  24
 114	 108	  98
 115	  70	  60
 116	  52	  42
 117	  53	  43
 118	  53	  43
 119	  49	  39
;

set E :=
   0	  34
   0	  62
   0	  63
   0	  76
   0	  77
   0	  84
   0	  98
   0	 107
   0	 114
   1	  13
   1	  17
   1	  25
   1	  33
   1	  38
   1	  48
   1	  52
   1	  86
   1	  91
   1	  99
   1	 104
   2	   4
   2	  18
   2	  28
   2	  36
   2	  51
   2	  70
   2	  77
   2	  85
   2	 107
   2	 112
   3	   8
   3	  13
   3	  19
   3	  35
   3	  36
   3	  88
   3	  90
   3	 109
   4	   6
   4	  18
   4	  22
   4	  28
   4	  57
   4	  85
   4	  93
   4	 104
   4	 112
   5	  25
   5	  42
   5	  53
   5	  56
   5	  57
   5	  93
   5	  95
   5	 103
   5	 106
   5	 108
   5	 113
   6	  17
   6	  18
   6	  28
   6	  39
   6	  45
   6	  65
   6	  71
   6	  76
   6	 101
   6	 105
   6	 110
   7	  17
   7	  24
   7	  25
   7	  37
   7	  43
   7	  72
   7	  76
   7	 104
   7	 117
   7	 119
   8	  10
   8	  16
   8	  20
   8	  29
   8	  36
   8	  46
   8	  57
   8	  58
   8	  62
   8	  71
   8	  83
   9	  34
   9	  38
   9	  42
   9	  50
   9	  53
   9	  65
   9	  84
   9	  87
   9	  89
   9	  99
   9	 105
   9	 116
  10	  18
  10	  19
  10	  27
  10	  34
  10	  36
  10	  42
  10	  48
  10	  55
  10	  72
  10	  87
  10	  88
  10	  97
  10	 102
  10	 103
  10	 104
  10	 114
  11	  31
  11	  32
  11	  43
  11	  60
  11	 109
  12	  17
  12	  30
  12	  33
  12	  50
  12	  54
  12	  61
  12	  70
  12	  75
  12	  76
  12	  97
  12	 112
  12	 115
  13	  19
  13	  27
  13	  39
  13	  54
  13	  65
  13	  73
  13	  80
  13	  84
  13	  85
  13	  99
  13	 106
  13	 110
  13	 111
  14	  19
  14	  22
  14	  24
  14	  68
  14	  71
  14	  91
  14	  96
  14	 109
  15	  47
  15	  51
  15	  56
  15	  60
  15	  82
  15	  90
  15	  91
  15	  92
  15	 108
  15	 119
  16	  40
  16	  48
  16	  55
  16	  63
  16	  66
  16	  87
  16	  92
  16	  94
  16	 104
  16	 105
  16	 106
  16	 115
  17	  21
  17	  33
  17	  64
  17	  66
  17	  68
  17	  77
  17	  88
  17	  92
  17	 100
  17	 102
  18	  37
  18	  42
  18	  46
  18	  49
  18	  60
  18	  62
  18	  64
  18	  73
  18	  88
  18	  93
  18	 101
  18	 114
  19	  24
  19	  35
  19	  38
  19	  44
  19	  51
  19	  65
  19	  68
  19	  69
  19	  76
  19	  84
  19	 105
  20	  36
  20	  45
  20	  50
  20	  53
  20	  67
  20	  91
  20	  96
  20	 100
  20	 103
  20	 106
  20	 115
  21	  30
  21	  31
  21	  32
  21	  48
  21	  50
  21	  59
  21	  61
  21	  64
  21	  71
  21	  78
  21	  80
  21	  88
  21	 100
  21	 118
  22	  31
  22	  32
  22	  33
  22	  39
  22	  41
  22	  46
  22	  52
  22	  60
  22	  80
  22	 106
  22	 108
  22	 112
  23	  24
  23	  27
  23	  29
  23	  41
  23	  51
  23	  81
  23	  86
  23	  97
  23	 100
  23	 108
  24	  25
  24	  31
  24	  41
  24	  64
  24	  74
  24	  77
  24	  78
  24	  82
  24	  87
  24	 100
  24	 102
  24	 111
  25	  47
  25	  63
  25	  83
  25	 106
  26	  32
  26	  36
  26	  55
  26	  65
  26	  66
  26	  81
  26	 101
  27	  65
  27	  68
  27	 100
  27	 104
  27	 109
  28	  36
  28	  39
  28	  42
  28	  44
  28	  68
  28	  77
  28	  85
  28	  87
  28	 112
  29	  66
  29	  72
  29	  79
  29	  89
  29	  91
  29	  93
  29	  95
  29	 104
  29	 112
  30	  35
  30	  39
  30	  48
  30	  57
  30	  62
  30	  97
  30	 119
  31	  32
  31	  36
  31	  37
  31	  46
  31	  50
  31	  69
  31	  72
  31	  73
  31	  76
  31	  77
  31	  78
  31	  79
  31	  80
  31	 112
  32	  39
  32	  43
  32	  45
  32	  64
  32	  70
  32	  71
  32	  72
  32	  83
  32	  84
  32	  98
  32	 118
  33	  35
  33	  43
  33	  54
  33	  90
  33	  99
  33	 104
  33	 106
  33	 107
  34	  45
  34	  57
  34	  58
  34	  67
  34	  72
  34	  75
  34	  80
  34	  83
  34	  86
  34	 107
  34	 111
  34	 114
  35	  45
  35	  65
  35	  67
  35	  92
  35	  95
  35	  97
  35	 102
  36	  46
  36	  50
  36	  53
  36	  54
  36	  64
  36	  69
  36	  81
  36	  83
  36	  99
  36	 114
  36	 117
  36	 118
  37	  56
  37	  73
  37	  89
  37	  98
  37	 105
  37	 108
  37	 109
  37	 119
  38	  61
  38	  81
  38	  91
  38	 109
  38	 113
  39	  48
  39	  50
  39	  59
  39	  68
  39	  70
  39	  82
  39	  95
  39	  96
  39	 108
  39	 118
  40	  44
  40	  47
  40	  49
  40	  52
  40	  68
  40	  70
  40	  73
  40	  89
  40	  98
  40	 103
  40	 108
  41	  60
  41	  61
  41	  65
  41	  74
  41	  77
  41	  84
  41	 101
  41	 103
  42	  48
  42	  50
  42	  61
  42	  66
  42	 106
  42	 108
  42	 119
  43	  44
  43	  72
  43	  76
  43	  86
  43	  90
  43	  92
  43	 103
  43	 105
  43	 112
  43	 113
  43	 114
  44	  66
  44	  71
  44	  87
  44	  89
  44	 108
  45	  80
  45	  84
  45	 103
  45	 104
  45	 109
  46	  47
  46	  63
  46	  64
  46	  70
  46	 107
  46	 119
  47	  60
  47	  61
  47	  66
  47	  70
  47	  79
  47	  83
  47	  92
  47	 102
  48	  58
  48	  69
  48	 101
  48	 102
  48	 103
  48	 111
  48	 119
  49	  54
  49	  71
  49	  74
  49	  81
  49	  92
  49	  93
  49	 100
  49	 104
  50	  52
  50	  53
  50	  54
  50	  76
  50	  77
  50	 107
  51	  59
  51	  62
  51	  83
  51	  87
  51	  94
  51	  97
  51	 102
  51	 110
  51	 111
  52	  53
  52	  59
  52	  65
  52	  78
  52	  82
  52	  94
  52	  98
  52	 102
  52	 112
  53	  57
  53	  60
  53	  78
  53	 100
  53	 106
  53	 113
  54	  58
  54	  60
  54	  65
  54	  72
  54	  82
  54	  97
  54	 103
  54	 105
  54	 113
  55	  58
  55	  63
  55	  66
  55	  82
  55	  88
  55	  92
  55	 117
  55	 119
  56	  76
  56	  82
  56	  85
  56	 100
  57	  58
  57	  80
  57	  84
  57	  86
  57	  89
  57	 117
  58	  74
  58	  99
  58	 103
  58	 117
  59	  65
  59	  66
  59	  72
  59	  94
  59	 106
  60	  67
  60	  79
  60	  99
  60	 119
  61	  64
  61	  74
  61	  82
  61	 106
  61	 113
  61	 115
  62	  63
  62	  75
  62	  94
  62	 101
  63	  66
  63	  97
  63	 107
  64	  94
  64	 106
  65	  67
  65	  71
  65	  77
  65	  80
  65	  83
  65	  84
  65	  96
  65	 103
  65	 112
  65	 113
  65	 119
  66	  75
  66	  84
  66	  88
  66	 103
  66	 109
  67	  68
  67	  85
  67	  90
  67	  93
  67	 103
  67	 104
  67	 117
  68	 105
  68	 110
  68	 116
  68	 117
  68	 118
  69	  79
  69	  86
  69	  88
  69	  98
  69	 104
  69	 106
  69	 117
  70	  73
  70	  74
  70	  90
  70	 115
  71	  78
  71	  89
  71	  96
  71	 104
  71	 106
  71	 113
  72	  74
  72	 100
  72	 106
  72	 111
  73	  87
  73	  91
  73	 111
  73	 115
  73	 116
  74	  78
  74	  96
  74	  99
  76	  78
  76	  80
  76	  83
  76	  93
  77	  81
  77	  92
  77	 118
  78	  93
  78	 114
  78	 116
  79	 101
  79	 105
  79	 113
  80	  96
  80	 102
  80	 103
  80	 109
  81	  86
  81	  96
  81	  99
  82	  84
  82	  91
  83	  90
  83	 100
  83	 106
  83	 118
  84	  92
  84	 112
  85	  96
  85	 102
  85	 106
  85	 110
  86	 113
  87	  89
  87	 103
  87	 117
  88	 107
  88	 115
  89	 104
  89	 110
  89	 111
  89	 115
  89	 117
  90	 101
  90	 106
  90	 113
  90	 119
  91	  95
  91	 100
  91	 103
  91	 113
  92	  98
  92	 100
  92	 104
  92	 105
  93	  99
  93	 104
  93	 105
  93	 110
  93	 115
  93	 118
  94	 101
  94	 102
  94	 103
  94	 105
  94	 114
  95	 104
  95	 109
  95	 111
  95	 112
  96	 110
  97	  99
  97	 100
  97	 104
  97	 108
  97	 117
  97	 119
  98	 109
  98	 111
  98	 117
  98	 119
  99	 113
 100	 102
 100	 105
 100	 106
 100	 111
 100	 115
 101	 113
 102	 108
 102	 111
 103	 110
 105	 109
 106	 114
 106	 119
 108	 110
 109	 110
 109	 117
 110	 118
 112	 113
 112	 116
 113	 114
 113	 119
 116	 118
 116	 119
;
